50, 4502
23, 74
115, 370
92, 296
69, 222
352, 576
138, 444
46, 148
396, 648
207, 666
396, 648
23, 74
396, 648
44, 72
308, 504
230, 740
69, 222
92, 296
230, 740
161, 518
207, 666
44, 72
308, 504
264, 432
207, 666
46, 148
176, 288
220, 360
69, 222
308, 504
352, 576
92, 296
308, 504
176, 288
46, 148
44, 72
352, 576
440, 720
230, 740
161, 518
115, 370
184, 592
115, 370
220, 360
352, 576
115, 370
88, 144
46, 148
176, 288
115, 370
132, 216
